sifdecoder -A pc64.lnx.gfo -st   A2NSDSIL

 Problem name: A2NSDSIL

 Double precision version will be formed

 The objective function uses 2 linear groups
 
 There are 20004 linear equality constraints
 
 There are 15004 free variables
 There are 10000 variables bounded only from below 
 There are 35008 fixed variables
 
 
 File successfully decoded
 CUTEST: tools (double precision version) compiled successfully
 CUTEst: ipopt (double precision version) compiled successfully

******************************************************************************
This program contains Ipopt, a library for large-scale nonlinear optimization.
 Ipopt is released as open source code under the Eclipse Public License (EPL).
         For more information visit http://projects.coin-or.org/Ipopt
******************************************************************************

This is Ipopt version trunk, running with linear solver ma57.

Number of nonzeros in equality constraint Jacobian...:    80004
Number of nonzeros in inequality constraint Jacobian.:        0
Number of nonzeros in Lagrangian Hessian.............:    30004

Total number of variables............................:    25004
                     variables with only lower bounds:    10000
                variables with lower and upper bounds:        0
                     variables with only upper bounds:        0
Total number of equality constraints.................:    20004
Total number of inequality constraints...............:        0
        inequality constraints with only lower bounds:        0
   inequality constraints with lower and upper bounds:        0
        inequality constraints with only upper bounds:        0

iter    objective    inf_pr   inf_du lg(mu)  ||d||  lg(rg) alpha_du alpha_pr  ls
   0  4.9999900e-01 6.35e+02 6.23e-01  -1.0 0.00e+00    -  0.00e+00 0.00e+00   0
   1  7.2619500e-01 6.34e+02 1.08e+00  -1.0 1.09e+02    -  1.02e-03 2.01e-03f  1
   2  1.0180330e+00 6.33e+02 1.08e+00  -1.0 9.10e+01    -  1.73e-03 1.66e-03f  1
   3  1.4500035e+00 6.31e+02 1.08e+00  -1.0 5.06e+01    -  1.87e-03 2.02e-03f  1
   4  1.9617781e+00 6.30e+02 1.07e+00  -1.0 7.00e+01    -  1.96e-03 2.12e-03f  1
   5  2.6516149e+00 6.28e+02 1.07e+00  -1.0 4.59e+01    -  2.65e-03 2.61e-03f  1
   6  3.5535377e+00 6.26e+02 1.07e+00  -1.0 5.17e+01    -  2.75e-03 3.20e-03f  1
   7  5.0140452e+00 6.23e+02 2.30e+00  -1.0 6.45e+01    -  3.24e-03 4.99e-03f  1
   8  7.4688211e+00 6.19e+02 2.36e+00  -1.0 1.30e+01   0.0 5.39e-03 6.60e-03f  1
   9  1.1910097e+01 6.12e+02 2.58e+00  -1.0 1.89e+01  -0.5 7.48e-03 1.22e-02f  1
iter    objective    inf_pr   inf_du lg(mu)  ||d||  lg(rg) alpha_du alpha_pr  ls
  10  2.1255391e+01 6.01e+02 3.68e+00  -1.0 1.23e+01  -0.1 1.18e-02 1.78e-02f  1
  11  4.7771454e+01 5.83e+02 5.00e+00  -1.0 1.10e+01   0.4 1.44e-02 2.90e-02f  1
  12  1.2861203e+02 5.41e+02 6.84e+00  -1.0 1.15e+01  -0.1 2.69e-02 7.30e-02f  1
  13  3.6339439e+02 4.80e+02 1.49e+01  -1.0 9.16e+00   0.3 3.97e-02 1.12e-01f  1
  14  4.1643189e+02 4.57e+02 1.18e+01  -1.0 1.19e+01  -0.2 1.36e-01 4.79e-02h  1
  15  1.8324837e+03 2.55e+02 2.99e+01  -1.0 7.46e+00   0.3 1.56e-01 4.42e-01h  1
  16  1.7484708e+03 2.48e+02 3.45e+01  -1.0 1.34e+01  -0.2 6.00e-01 2.84e-02f  1
  17  2.9701881e+03 8.68e+01 3.10e+01  -1.0 4.11e+00   0.2 1.00e+00 6.50e-01h  1
  18  2.5793123e+03 8.25e+01 5.96e+01  -1.0 2.21e+01  -0.3 2.89e-01 4.92e-02f  1
  19  2.5439996e+03 6.92e+01 1.71e+02  -1.0 2.69e+00   0.2 1.00e+00 1.61e-01h  1
iter    objective    inf_pr   inf_du lg(mu)  ||d||  lg(rg) alpha_du alpha_pr  ls
  20  2.2833092e+03 6.66e+01 1.94e+02  -1.0 4.02e+01  -0.3 1.64e-01 3.76e-02f  1
  21  2.2347288e+03 5.48e+01 3.59e+02  -1.0 2.54e+00   0.1 1.00e+00 1.78e-01h  1
  22  2.3815795e+03 1.03e+01 1.20e+02  -1.0 1.14e+00   0.5 1.00e+00 8.13e-01h  1
  23  2.2579304e+03 8.42e+00 2.04e+03  -1.0 2.37e+00   0.1 1.00e+00 1.80e-01f  1
  24  2.1858229e+03 3.86e+00 1.71e+03  -1.0 7.40e-01   0.5 1.00e+00 5.42e-01h  1
  25  2.0928828e+03 3.19e+00 4.93e+03  -1.0 2.80e+00   0.0 1.00e+00 1.73e-01f  1
  26  2.0200636e+03 1.59e+00 5.07e+03  -1.0 7.65e-01   0.4 1.00e+00 5.02e-01f  1
  27  1.9182044e+03 1.30e+00 1.28e+04  -1.0 2.70e+00  -0.0 1.00e+00 1.80e-01f  1
  28  1.8542631e+03 7.15e-01 1.40e+04  -1.0 7.41e-01   0.4 1.00e+00 4.51e-01f  1
  29  1.7473315e+03 5.73e-01 2.99e+04  -1.0 3.45e+00  -0.1 1.00e+00 1.99e-01f  1
iter    objective    inf_pr   inf_du lg(mu)  ||d||  lg(rg) alpha_du alpha_pr  ls
  30  1.7044706e+03 3.93e-01 4.04e+04  -1.0 7.83e-01   0.3 1.00e+00 3.14e-01f  1
  31  1.5726967e+03 3.03e-01 6.37e+04  -1.0 4.60e+00  -0.1 1.00e+00 2.29e-01f  1
  32  1.5439219e+03 2.41e-01 9.40e+04  -1.0 8.89e-01   0.3 1.00e+00 2.04e-01f  1
  33  1.4447106e+03 1.95e-01 1.31e+05  -1.0 4.30e+00  -0.2 1.00e+00 1.93e-01f  1
  34  1.3814981e+03 1.04e-01 1.15e+05  -1.0 9.87e-01   0.2 1.00e+00 4.66e-01h  1
Reallocating memory for MA57: lfact (782975)
  35  1.2893809e+03 8.91e-02 2.20e+05  -1.0 7.68e+00  -0.2 9.29e-01 1.44e-01f  1
Reallocating memory for MA57: lfact (878269)
  36  1.2191356e+03 4.69e-02 2.15e+05  -1.0 1.07e+00   0.2 1.00e+00 4.73e-01f  1
Reallocating memory for MA57: lfact (932039)
  37  1.1299642e+03 4.18e-02 4.14e+05  -1.0 1.16e+01  -0.3 6.75e-01 1.09e-01f  1
  38  1.0714375e+03 2.64e-02 5.59e+05  -1.0 1.37e+00   0.1 1.00e+00 3.68e-01f  1
  39  1.0035398e+03 2.44e-02 7.10e+05  -1.0 2.15e+01  -0.3 3.07e-01 7.82e-02f  1
iter    objective    inf_pr   inf_du lg(mu)  ||d||  lg(rg) alpha_du alpha_pr  ls
  40  9.4009896e+02 1.51e-02 1.05e+06  -1.0 1.72e+00   0.1 1.00e+00 3.82e-01f  1
  41  9.1012214e+02 6.64e-03 1.35e+06  -1.0 4.71e-01   0.5 1.00e+00 5.59e-01h  1
  42  8.6929033e+02 4.63e-03 6.91e+06  -1.0 1.60e+00   0.0 1.00e+00 3.03e-01f  1
  43  8.5828229e+02 3.40e-03 3.18e+07  -1.0 4.76e-01   0.5 1.00e+00 2.64e-01h  1
  44  8.5364363e+02 3.27e-03 5.17e+08  -1.0 1.64e+00  -0.0 4.00e-01 3.90e-02h  1
  45  8.5208439e+02 3.15e-03 7.00e+09  -1.0 5.13e-01   0.4 1.00e+00 3.72e-02h  1
  46  7.9636174e+02 1.87e-03 4.18e+00  -1.0 1.99e+00  -0.1 1.00e+00 4.06e-01f  1
  47  7.9482996e+02 1.86e-03 3.62e+09  -3.8 6.67e-01   0.4 5.11e-02 3.79e-03f  1
  48  7.9474177e+02 1.86e-03 1.03e+09  -3.8 2.88e+00  -0.1 7.15e-01 1.64e-04f  1
  49  4.4612155e+02 3.06e-04 7.50e+07  -3.8 7.01e-01   0.3 9.27e-01 8.36e-01f  1
iter    objective    inf_pr   inf_du lg(mu)  ||d||  lg(rg) alpha_du alpha_pr  ls
  50  4.0045848e+02 2.59e-04 8.38e+06  -3.8 4.53e+00  -0.2 8.88e-01 1.52e-01f  1
  51  3.9995066e+02 2.58e-04 1.37e+08  -3.8 1.11e+00   0.3 6.77e-04 3.94e-03f  1
  52  3.9994438e+02 2.58e-04 1.43e+08  -3.8 6.71e+00  -0.2 1.49e-05 2.03e-05H  1
  53  3.9908721e+02 2.56e-04 1.43e+08  -3.8 1.29e+00   0.2 3.11e-05 6.27e-03f  1
  54  3.6144366e+02 2.76e-03 1.43e+08  -3.8 9.35e+00  -0.3 1.83e-07 9.50e-02f  1
  55  3.6075780e+02 2.88e-03 8.00e+07  -3.8 1.19e+00   0.2 4.39e-01 4.76e-03f  1
  56  3.2244643e+02 4.60e-03 6.87e+07  -3.8 2.04e+01  -0.3 1.42e-01 7.17e-02f  1
  57  3.1802718e+02 5.18e-03 2.52e+07  -3.8 1.89e+00   0.1 6.34e-01 2.82e-02f  1
  58  3.1449379e+02 5.25e-03 2.45e+07  -3.8 1.45e+02  -0.4 2.76e-02 3.46e-03f  1
  59  3.0213939e+02 6.82e-03 2.01e+07  -3.8 2.00e+00   0.1 6.87e-01 8.30e-02f  1
iter    objective    inf_pr   inf_du lg(mu)  ||d||  lg(rg) alpha_du alpha_pr  ls
  60  2.4453352e+02 1.74e-02 6.23e+06  -3.8 5.91e-01   0.5 1.00e+00 6.90e-01f  1
  61  2.3643533e+02 1.68e-02 5.83e+06  -3.8 2.52e+00  -0.0 1.00e+00 6.43e-02f  1
  62  2.2309601e+02 1.39e-02 4.20e+06  -3.8 7.01e-01   0.4 1.00e+00 2.79e-01f  1
  63  2.0976826e+02 1.28e-02 3.72e+06  -3.8 3.28e+00  -0.1 1.00e+00 1.15e-01f  1
  64  2.0120020e+02 1.11e-02 2.98e+06  -3.8 8.88e-01   0.4 1.00e+00 1.99e-01f  1
  65  1.9782749e+02 1.08e-02 2.88e+06  -3.8 3.34e+00  -0.1 1.00e+00 3.13e-02f  1
  66  1.8344310e+02 7.92e-03 1.78e+06  -3.8 8.56e-01   0.3 1.00e+00 3.83e-01f  1
  67  1.7633297e+02 7.56e-03 1.67e+06  -3.8 4.47e+00  -0.2 1.00e+00 5.99e-02f  1
  68  1.7004571e+02 6.52e-03 1.37e+06  -3.8 7.06e-01   0.3 1.00e+00 1.82e-01f  1
  69  1.6132506e+02 6.17e-03 1.27e+06  -3.8 4.17e+00  -0.2 1.00e+00 6.94e-02f  1
iter    objective    inf_pr   inf_du lg(mu)  ||d||  lg(rg) alpha_du alpha_pr  ls
  70  1.5817910e+02 5.75e-03 1.16e+06  -3.8 9.28e-01   0.2 1.00e+00 8.93e-02f  1
  71  1.4429347e+02 5.29e-03 1.04e+06  -3.8 6.23e+00  -0.3 1.00e+00 1.02e-01f  1
  72  1.3814597e+02 4.64e-03 8.78e+05  -3.8 1.30e+00   0.2 1.00e+00 1.58e-01f  1
  73  1.3437185e+02 4.56e-03 8.59e+05  -3.8 8.75e+00  -0.3 1.00e+00 2.13e-02f  1
  74  1.2335891e+02 3.47e-03 6.00e+05  -3.8 1.11e+00   0.1 1.00e+00 3.02e-01f  1
  75  1.1727933e+02 3.37e-03 5.78e+05  -3.8 9.25e+00  -0.4 6.93e-01 3.61e-02f  1
  76  1.1141195e+02 2.85e-03 4.68e+05  -3.8 1.46e+00   0.1 1.00e+00 1.91e-01f  1
  77  1.0676078e+02 2.76e-03 4.50e+05  -3.8 7.64e+00  -0.4 2.78e-01 3.67e-02f  1
  78  1.0410504e+02 2.54e-03 4.05e+05  -3.8 1.10e+00   0.0 1.00e+00 1.01e-01f  1
  79  9.7671110e+01 2.45e-03 3.88e+05  -3.8 1.42e+01  -0.5 2.95e-01 4.18e-02f  1
iter    objective    inf_pr   inf_du lg(mu)  ||d||  lg(rg) alpha_du alpha_pr  ls
  80  8.9357280e+01 1.87e-03 2.76e+05  -3.8 1.21e+00  -0.0 1.00e+00 2.88e-01f  1
  81  8.9188489e+01 1.84e-03 2.72e+05  -3.8 3.65e-01   0.4 1.00e+00 1.69e-02f  1
  82  8.5679450e+01 1.67e-03 2.41e+05  -3.8 1.52e+00  -0.1 1.00e+00 1.11e-01f  1
  83  8.2158081e+01 1.22e-03 1.64e+05  -3.8 4.31e-01   0.3 1.00e+00 3.19e-01f  1
  84  7.9559866e+01 1.14e-03 1.52e+05  -3.8 1.72e+00  -0.1 1.00e+00 7.51e-02f  1
  85  7.7419184e+01 9.46e-04 1.21e+05  -3.8 4.78e-01   0.3 1.00e+00 2.03e-01f  1
  86  7.3195694e+01 8.61e-04 1.08e+05  -3.8 2.31e+00  -0.2 1.00e+00 1.05e-01f  1
  87  6.8234773e+01 5.58e-04 6.41e+04  -3.8 6.07e-01   0.2 1.00e+00 4.09e-01f  1
  88  6.7641481e+01 5.52e-04 6.33e+04  -3.8 3.54e+00  -0.2 1.00e+00 1.28e-02f  1
  89  6.1809494e+01 3.30e-04 3.41e+04  -3.8 7.80e-01   0.2 1.00e+00 4.61e-01f  1
iter    objective    inf_pr   inf_du lg(mu)  ||d||  lg(rg) alpha_du alpha_pr  ls
  90  5.8897822e+01 3.16e-04 3.25e+04  -3.8 5.25e+00  -0.3 1.00e+00 4.61e-02f  1
  91  5.5939782e+01 2.61e-04 2.61e+04  -3.8 1.07e+00   0.1 1.00e+00 1.96e-01f  1
Reallocating memory for MA57: lfact (2649844)
  92  5.4113065e+01 2.55e-04 2.54e+04  -3.8 5.03e+00  -0.3 7.40e-01 2.75e-02f  1
  93  5.1473952e+01 2.04e-04 1.97e+04  -3.8 1.14e+00   0.1 1.00e+00 2.24e-01f  1
  94  4.9361547e+01 1.96e-04 1.89e+04  -3.8 6.10e+00  -0.4 7.62e-01 4.32e-02f  1
  95  4.6521965e+01 1.47e-04 1.35e+04  -3.8 8.85e-01   0.0 1.00e+00 2.83e-01f  1
  96  4.3555972e+01 1.41e-04 1.30e+04  -3.8 1.37e+01  -0.4 1.29e-01 4.16e-02f  1
  97  4.2725802e+01 1.32e-04 1.21e+04  -3.8 1.37e+00  -0.0 5.62e-02 6.84e-02f  1
  98  3.9405463e+01 1.25e-04 1.13e+04  -3.8 9.18e+00  -0.5 6.27e-01 6.10e-02f  1
  99  3.8603313e+01 1.17e-04 1.05e+04  -3.8 1.40e+00  -0.1 1.00e+00 7.60e-02f  1
iter    objective    inf_pr   inf_du lg(mu)  ||d||  lg(rg) alpha_du alpha_pr  ls
 100  3.5605812e+01 1.13e-04 1.02e+04  -3.8 2.01e+01  -0.5 4.32e-01 3.14e-02f  1
 101  3.3071332e+01 9.46e-05 8.29e+03  -3.8 1.99e+00  -0.1 1.00e+00 1.84e-01f  1
 102  3.0821485e+01 5.27e-05 4.23e+03  -3.8 6.26e-01   0.3 1.00e+00 4.90e-01f  1
 103  3.0646053e+01 5.21e-05 4.17e+03  -3.8 1.70e+00  -0.2 1.00e+00 1.37e-02f  1
 104  2.7981156e+01 1.54e-05 9.44e+02  -3.8 4.82e-01   0.3 1.00e+00 7.74e-01f  1
 105  2.7787997e+01 1.51e-05 9.35e+02  -3.8 1.26e+00  -0.2 1.00e+00 1.53e-02f  1
 106  2.5317888e+01 4.60e-06 2.37e+02  -3.8 3.35e-01   0.2 1.00e+00 7.48e-01f  1
 107  2.1171020e+01 3.30e-06 1.78e+02  -3.8 1.67e+00  -0.3 1.00e+00 3.01e-01f  1
 108  1.9576479e+01 2.17e-06 1.27e+02  -3.8 5.22e-01   0.2 1.00e+00 3.65e-01f  1
 109  1.7362021e+01 1.91e-06 1.35e+02  -3.8 2.68e+00  -0.3 8.53e-01 1.32e-01f  1
iter    objective    inf_pr   inf_du lg(mu)  ||d||  lg(rg) alpha_du alpha_pr  ls
 110  1.7011004e+01 1.79e-06 1.59e+02  -3.8 7.19e-01   0.1 1.00e+00 6.90e-02f  1
 111  1.6101164e+01 1.71e-06 1.79e+02  -3.8 3.81e+00  -0.4 8.85e-01 5.04e-02f  1
 112  1.3192570e+01 7.32e-07 7.04e+01  -3.8 8.83e-01   0.0 1.00e+00 6.62e-01f  1
 113  1.3146470e+01 7.30e-07 1.47e+02  -3.8 4.10e+00  -0.4 1.00e+00 2.74e-03f  1
 114  1.2335437e+01 6.08e-07 1.46e+02  -3.8 7.78e-01  -0.0 1.00e+00 2.36e-01f  1
 115  9.3369200e+00 5.52e-07 1.55e+02  -3.8 6.06e+00  -0.5 8.45e-01 1.39e-01f  1
 116  9.3046184e+00 5.49e-07 1.85e+02  -3.8 7.85e-01  -0.1 1.00e+00 9.70e-03f  1
 117  8.3181928e+00 5.29e-07 1.78e+02  -3.8 4.22e+00  -0.5 4.08e-01 6.16e-02f  1
 118  7.9442454e+00 4.91e-07 1.70e+02  -3.8 9.40e-01  -0.1 1.00e+00 1.21e-01f  1
 119  7.4947810e+00 4.74e-07 1.75e+02  -3.8 2.27e+00  -0.6 1.00e+00 5.73e-02f  1
iter    objective    inf_pr   inf_du lg(mu)  ||d||  lg(rg) alpha_du alpha_pr  ls
 120  7.0391433e+00 3.90e-07 1.27e+02  -3.8 5.52e-01  -0.2 1.00e+00 3.14e-01f  1
 121  6.3718018e+00 3.70e-07 1.47e+02  -3.8 3.03e+00  -0.6 1.00e+00 9.46e-02f  1
 122  5.3272141e+00 2.20e-07 3.29e+01  -3.8 6.83e-01  -0.2 1.00e+00 8.01e-01f  1
 123  4.4733656e+00 2.15e-07 6.22e+01  -3.8 6.17e+00  -0.7 3.89e-01 7.03e-02f  1
 124  4.2762150e+00 2.07e-07 1.19e+02  -3.8 1.03e+00  -0.3 1.00e+00 1.12e-01f  1
 125  3.4569473e+00 2.05e-07 1.16e+02  -3.8 1.50e+01  -0.7 1.67e-01 4.01e-02f  1
 126  2.8089804e+00 1.82e-07 7.81e+01  -3.8 1.41e+00  -0.3 9.11e-01 4.09e-01f  1
 127  2.8087736e+00 1.80e-07 1.18e+02  -3.8 1.89e-02   0.1 1.00e+00 5.40e-02f  3
 128  2.8087735e+00 1.80e-07 5.04e+07  -3.8 1.20e-01    -  2.22e-05 9.38e-07h  6
 129  2.7724205e+00 1.41e-07 4.98e+00  -3.8 3.31e-02  -0.4 1.00e+00 9.60e-01f  1
iter    objective    inf_pr   inf_du lg(mu)  ||d||  lg(rg) alpha_du alpha_pr  ls
 130  2.3576810e+00 8.62e-08 2.31e+01  -5.7 1.52e+00  -0.8 2.49e-01 4.17e-01f  1
 131  1.8438919e+00 5.36e-08 2.74e+00  -5.7 3.88e-01  -0.4 9.24e-01 8.93e-01f  1
 132  1.6981504e+00 5.37e-08 1.69e-01  -5.7 1.63e-01   0.0 1.00e+00 1.00e+00f  1
 133  1.4644814e+00 5.37e-08 8.94e+01  -5.7 8.37e-01  -0.5 1.00e+00 3.86e-01f  1
 134  1.2643494e+00 5.37e-08 2.46e+01  -5.7 2.77e-01  -0.0 1.00e+00 8.31e-01f  1
 135  1.2552054e+00 5.37e-08 1.13e+02  -5.7 1.51e+00  -0.5 7.40e-01 6.68e-03f  1
 136  1.2520683e+00 5.37e-08 1.11e+02  -5.7 3.40e-01  -0.1 2.54e-02 1.79e-02f  1
 137  1.2145929e+00 5.36e-08 1.05e+02  -5.7 1.54e+00  -0.6 3.53e-04 4.64e-02f  1
 138  1.2075916e+00 5.36e-08 1.05e+02  -5.7 4.06e-01  -0.1 1.30e-01 3.22e-02f  1
 139  1.1770240e+00 5.37e-08 1.01e+02  -5.7 1.98e+00  -0.6 1.43e-05 2.84e-02f  1
iter    objective    inf_pr   inf_du lg(mu)  ||d||  lg(rg) alpha_du alpha_pr  ls
 140  1.1770333e+00 5.37e-08 1.03e+02  -5.7 3.94e-02    -  5.46e-02 5.08e-03f  8
 141  1.1768040e+00 5.37e-08 9.88e+01  -5.7 3.82e-02    -  1.06e-01 5.86e-02h  1
 142  1.1753141e+00 5.36e-08 4.49e+01  -5.7 3.60e-02    -  1.00e+00 6.91e-01f  1
 143  1.1751544e+00 5.37e-08 3.58e-07  -5.7 1.12e-02    -  1.00e+00 1.00e+00f  1
 144  1.1682826e+00 5.37e-08 1.30e+02  -8.6 1.21e-03    -  1.00e+00 8.29e-01f  1
 145  1.1668999e+00 5.37e-08 2.47e+01  -8.6 7.25e-04    -  1.00e+00 9.67e-01h  1
 146  1.1668570e+00 5.37e-08 7.09e+01  -8.6 3.01e-04    -  1.00e+00 9.07e-01f  1
 147  1.1668526e+00 5.37e-08 2.38e-07  -8.6 1.52e-04    -  1.00e+00 1.00e+00f  1
 148  1.1668526e+00 5.37e-08 2.38e-07  -8.6 5.86e-05    -  1.00e+00 1.00e+00h  1
 149  1.1668526e+00 5.37e-08 1.19e-07  -8.6 1.66e-05    -  1.00e+00 1.00e+00h  1
iter    objective    inf_pr   inf_du lg(mu)  ||d||  lg(rg) alpha_du alpha_pr  ls
 150  1.1668526e+00 5.37e-08 1.19e-07  -8.6 1.59e-06    -  1.00e+00 1.00e+00s 22
 151  1.1668526e+00 5.37e-08 2.38e-07  -8.6 1.48e-08    -  1.00e+00 1.00e+00s 22
 152  1.1668526e+00 5.37e-08 1.19e-07  -8.6 1.51e-12    -  1.00e+00 1.00e+00s 22

Number of Iterations....: 152

                                   (scaled)                 (unscaled)
Objective...............:   1.1668526184138028e+00    1.1668526184138028e+00
Dual infeasibility......:   1.1920928955078125e-07    1.1920928955078125e-07
Constraint violation....:   5.3665716374720309e-08    5.3665716374720309e-08
Complementarity.........:   2.5059042346395583e-09    2.5059042346395583e-09
Overall NLP error.......:   5.3665716374720309e-08    1.1920928955078125e-07


Number of objective function evaluations             = 191
Number of objective gradient evaluations             = 154
Number of equality constraint evaluations            = 191
Number of inequality constraint evaluations          = 0
Number of equality constraint Jacobian evaluations   = 154
Number of inequality constraint Jacobian evaluations = 0
Number of Lagrangian Hessian evaluations             = 153
Total CPU secs in IPOPT (w/o function evaluations)   =     58.550
Total CPU secs in NLP function evaluations           =      9.171

EXIT: Solved To Acceptable Level.

************************ CUTEst statistics ************************


 Package used            :  IPOPT
 Problem                 :  A2NSDSIL  
 # variables             =           60012
 # constraints           =           20004
 # objective functions   =        0.3460000E+03
 # objective gradients   =        0.1550000E+03
 # objective Hessians    =        0.1540000E+03
 # Hessian-vector prdct  =        0.0000000E+00
 # constraints functions =        0.3470000E+03
 # constraints gradients =        0.1560000E+03
 # constraints Hessians  =        0.1540000E+03
 Exit code               =               1
 Final f                 =        1.1668526184138028D+00
 Bounds feasibility      =        9.9999999969372614D-09
 Set up time             =            0.78 seconds
 Solve time              =          139.02 seconds


******************************************************************

